data/mip_solutions/furman_sahinidis/transportation/12sp1_gurobi.sol
Elapsed time: 0.157917976379
Nodes explored: 0
Upper bound: 12.0
Lower bound: 12.0
y[0,0]=1
y[0,1]=1
y[1,1]=1
y[2,1]=1
y[2,2]=1
y[3,0]=1
y[4,0]=1
y[5,1]=1
y[6,0]=1
y[7,1]=1
y[8,0]=1
y[9,1]=1
q[0,1,1,1]=28992.816
q[0,1,1,2]=-1.08770311112e-08
q[0,2,1,2]=42683.868
q[0,3,1,3]=7830.374
q[0,3,1,4]=4249.966
q[0,4,1,4]=10469.628
q[0,5,1,5]=11677.662
q[0,6,1,6]=29525.8686848
q[0,6,1,7]=3493.72731522
q[0,7,1,9]=8858.916
q[0,8,1,8]=1247.43438482
q[0,8,1,9]=3182.02361518
q[0,9,0,10]=14006.09
q[0,9,1,9]=2101.03
q[0,10,0,10]=2838.543
q[0,10,0,11]=13309.977
q[0,10,0,12]=3985.38
q[1,2,1,3]=16490.383
q[1,2,1,5]=4009.972
q[1,2,1,6]=2120.77661518
q[1,2,1,9]=944.576384822
q[1,3,1,4]=6669.54
q[1,4,1,6]=5780.268
q[1,5,1,5]=6447.222
q[1,6,1,6]=10428.2613848
q[1,6,1,8]=7801.81461518
q[1,7,1,8]=-3.93160501057e-12
q[1,7,1,9]=4890.996
q[1,8,1,8]=-1.77351466846e-11
q[1,8,1,9]=2445.498
q[1,9,1,9]=7114.176
q[2,5,1,6]=332.380315217
q[2,5,1,7]=5072.30268478
q[2,5,2,9]=3299.389
q[2,5,2,10]=1192.468
q[2,6,1,6]=19270.483
q[2,6,2,6]=5670.259
q[2,6,2,7]=3042.578
q[2,6,2,8]=-1.46966214444e-11
q[2,7,1,7]=7507.72
q[2,8,2,8]=1521.289
q[2,8,2,9]=2232.571
q[2,9,2,10]=13650.4
q[2,10,2,10]=3412.6
q[3,8,0,12]=6090.26
q[3,9,0,10]=22146.4
q[3,10,0,10]=16609.8
q[4,3,0,11]=1131.75
q[4,4,0,10]=980.85
q[4,5,0,11]=1094.025
q[4,6,0,10]=3093.45
q[4,6,0,12]=-2.24392192456e-11
q[4,7,0,10]=829.95
q[4,8,0,10]=414.975
q[4,9,0,11]=1509.0
q[4,10,0,10]=3772.5
q[5,4,1,9]=2356.77
q[5,5,1,5]=1722.255
q[6,6,0,11]=6522.772
q[6,7,0,10]=1750.012
q[6,8,0,10]=875.006
q[6,8,0,12]=-8.86757334229e-12
q[6,9,0,10]=3181.84
q[6,9,2,10]=9.09494701773e-13
q[6,10,0,10]=7954.6
q[7,7,1,7]=2024.748
q[7,8,1,9]=1012.374
q[8,9,0,10]=3412.12
q[8,9,2,9]=9.09494701773e-13
q[8,10,0,12]=8530.3
q[9,0,1,0]=30438.383
q[9,0,1,1]=30238.632
q[9,0,1,2]=44517.986
q[9,0,1,3]=359.013
